
Gurobi 7.0.2 (win64) logging started 06/27/20 10:18:56

Read LP format model from file C:\George\Professor\Pesquisa\Orientacoes em Pos-graduacao\2019 MSC PPGCC Guilherme Figueroa\Fanjuls Solver\Results\I_150_25_S_1-124_7_MTZ_KB.lp
Reading time = 3.14 seconds
: 30350 rows, 570151 columns, 2317525 nonzeros
Optimize a model with 30350 rows, 570151 columns and 2317525 nonzeros
Variable types: 3901 continuous, 566250 integer (566250 binary)
Coefficient statistics:
  Matrix range     [1e+00, 2e+02]
  Objective range  [1e+00, 1e+00]
  Bounds range     [1e+00, 1e+00]
  RHS range        [1e+00, 1e+02]
Presolve removed 0 rows and 0 columns (presolve time = 5s) ...
Presolve time: 5.34s
Presolved: 30350 rows, 570151 columns, 2317525 nonzeros
Variable types: 150 continuous, 570001 integer (570000 binary)
Found heuristic solution: objective 17499.000000
Found heuristic solution: objective 17450.000000

Root simplex log...

Iteration    Objective       Primal Inf.    Dual Inf.      Time
       0    0.0000000e+00   3.000000e+02   0.000000e+00     14s
    2689    5.7207986e-05   2.454857e+03   0.000000e+00     15s
    4439    1.1299613e-04   2.001352e+03   0.000000e+00     20s
    5063    1.5173585e-04   3.534085e+03   0.000000e+00     26s
    6103    1.9819147e-04   2.408883e+03   0.000000e+00     30s
    7497    2.5760115e-04   1.226552e+03   0.000000e+00     35s
    8707    3.1120867e-04   2.438745e+03   0.000000e+00     40s
    9990    3.4168842e-04   4.442410e+03   0.000000e+00     45s
   11659    4.1744194e-04   3.789553e+03   0.000000e+00     50s
   12595    4.6538319e-04   4.410147e+03   0.000000e+00     55s
   13427    5.2368626e-04   6.006380e+03   0.000000e+00     60s
   14883    6.4100660e-04   7.733880e+03   0.000000e+00     66s
   15715    7.3864571e-04   1.933905e+04   0.000000e+00     71s
   17275    9.5924198e-04   7.914993e+03   0.000000e+00     75s
   22347    2.8763810e+01   2.362721e+03   0.000000e+00     80s
   25241    4.0727692e+01   4.477031e+03   0.000000e+00     85s
   27898    4.8709702e+01   1.586104e+03   0.000000e+00     90s
   29354    5.3192743e+01   2.206220e+03   0.000000e+00     95s
   31162    5.6637590e+01   5.037452e+03   0.000000e+00    100s
   32655    5.9585597e+01   1.424807e+03   0.000000e+00    105s
   33903    6.1204132e+01   1.021839e+03   0.000000e+00    110s
   34943    6.2331211e+01   6.978796e+02   0.000000e+00    115s
   36087    6.3356487e+01   8.503448e+02   0.000000e+00    120s
   36815    6.3921504e+01   5.455961e+02   0.000000e+00    125s
   37543    6.4526016e+01   1.012592e+03   0.000000e+00    130s
   38271    6.5026702e+01   2.429142e+03   0.000000e+00    135s
   38895    6.5375130e+01   2.666001e+03   0.000000e+00    140s
   39519    6.5618216e+01   1.467918e+03   0.000000e+00    146s
   40039    6.5785470e+01   3.770612e+02   0.000000e+00    151s
   40559    6.5914455e+01   2.457776e+02   0.000000e+00    156s
   40975    6.6006207e+01   1.124757e+03   0.000000e+00    161s
   41287    6.6058169e+01   7.718205e+01   0.000000e+00    165s
   41599    6.6098311e+01   2.098645e+03   0.000000e+00    170s
   42015    6.6135366e+01   9.876130e+02   0.000000e+00    176s
   42327    6.6154254e+01   5.992408e+01   0.000000e+00    181s
   42639    6.6163765e+01   1.849242e+01   0.000000e+00    187s
   42767    6.6165226e+01   0.000000e+00   0.000000e+00    189s

Root relaxation: objective 6.616523e+01, 42767 iterations, 175.67 seconds
Total elapsed time = 190.91s

    Nodes    |    Current Node    |     Objective Bounds      |     Work
 Expl Unexpl |  Obj  Depth IntInf | Incumbent    BestBd   Gap | It/Node Time

     0     0   66.16523    0  925 17450.0000   66.16523   100%     -  191s
H    0     0                     278.0000000   66.16523  76.2%     -  402s
     0     0   66.70951    0  940  278.00000   66.70951  76.0%     -  685s
     0     0   66.97754    0  962  278.00000   66.97754  75.9%     -  837s
     0     0   66.97754    0  962  278.00000   66.97754  75.9%     -  840s
     0     0   67.15249    0  956  278.00000   67.15249  75.8%     -  970s
     0     0   67.15868    0  953  278.00000   67.15868  75.8%     -  978s
     0     0   67.20052    0  958  278.00000   67.20052  75.8%     -  993s
     0     0   67.20052    0  958  278.00000   67.20052  75.8%     -  995s
     0     0   67.20052    0  958  278.00000   67.20052  75.8%     - 1000s
     0     0   67.20052    0  958  278.00000   67.20052  75.8%     - 1007s
     0     0   67.20052    0  958  278.00000   67.20052  75.8%     - 1014s
     0     0   68.00000    0  791  278.00000   68.00000  75.5%     - 2916s
     0     0   68.00000    0  763  278.00000   68.00000  75.5%     - 3252s

Cutting planes:
  Learned: 1
  MIR: 70
  Zero half: 2

Explored 0 nodes (145157 simplex iterations) in 3600.26 seconds
Thread count was 1 (of 12 available processors)

Solution count 3: 278 17450 17499 
Pool objective bound 68

Time limit reached
Best objective 2.780000000000e+02, best bound 6.800000000000e+01, gap 75.5396%
